; benchmark generated from python API
(set-info :status unknown)
(declare-fun cell_1_6 () Int)
(declare-fun cell_1_7 () Int)
(declare-fun cell_2_3 () Int)
(declare-fun cell_2_7 () Int)
(declare-fun cell_3_2 () Int)
(declare-fun cell_3_6 () Int)
(declare-fun cell_4_4 () Int)
(declare-fun cell_4_9 () Int)
(declare-fun cell_5_1 () Int)
(declare-fun cell_6_4 () Int)
(declare-fun cell_7_5 () Int)
(declare-fun cell_8_8 () Int)
(declare-fun cell_9_3 () Int)
(declare-fun cell_1_1 () Int)
(declare-fun cell_2_1 () Int)
(declare-fun cell_3_1 () Int)
(declare-fun cell_4_1 () Int)
(declare-fun cell_6_1 () Int)
(declare-fun cell_7_1 () Int)
(declare-fun cell_8_1 () Int)
(declare-fun cell_9_1 () Int)
(declare-fun cell_1_2 () Int)
(declare-fun cell_2_2 () Int)
(declare-fun cell_4_2 () Int)
(declare-fun cell_5_2 () Int)
(declare-fun cell_6_2 () Int)
(declare-fun cell_7_2 () Int)
(declare-fun cell_8_2 () Int)
(declare-fun cell_9_2 () Int)
(declare-fun cell_1_3 () Int)
(declare-fun cell_3_3 () Int)
(declare-fun cell_4_3 () Int)
(declare-fun cell_5_3 () Int)
(declare-fun cell_6_3 () Int)
(declare-fun cell_7_3 () Int)
(declare-fun cell_8_3 () Int)
(declare-fun cell_1_4 () Int)
(declare-fun cell_2_4 () Int)
(declare-fun cell_3_4 () Int)
(declare-fun cell_5_4 () Int)
(declare-fun cell_7_4 () Int)
(declare-fun cell_8_4 () Int)
(declare-fun cell_9_4 () Int)
(declare-fun cell_1_5 () Int)
(declare-fun cell_2_5 () Int)
(declare-fun cell_3_5 () Int)
(declare-fun cell_4_5 () Int)
(declare-fun cell_5_5 () Int)
(declare-fun cell_6_5 () Int)
(declare-fun cell_8_5 () Int)
(declare-fun cell_9_5 () Int)
(declare-fun cell_2_6 () Int)
(declare-fun cell_4_6 () Int)
(declare-fun cell_5_6 () Int)
(declare-fun cell_6_6 () Int)
(declare-fun cell_7_6 () Int)
(declare-fun cell_8_6 () Int)
(declare-fun cell_9_6 () Int)
(declare-fun cell_3_7 () Int)
(declare-fun cell_4_7 () Int)
(declare-fun cell_5_7 () Int)
(declare-fun cell_6_7 () Int)
(declare-fun cell_7_7 () Int)
(declare-fun cell_8_7 () Int)
(declare-fun cell_9_7 () Int)
(declare-fun cell_1_8 () Int)
(declare-fun cell_2_8 () Int)
(declare-fun cell_3_8 () Int)
(declare-fun cell_4_8 () Int)
(declare-fun cell_5_8 () Int)
(declare-fun cell_6_8 () Int)
(declare-fun cell_7_8 () Int)
(declare-fun cell_9_8 () Int)
(declare-fun cell_1_9 () Int)
(declare-fun cell_2_9 () Int)
(declare-fun cell_3_9 () Int)
(declare-fun cell_5_9 () Int)
(declare-fun cell_6_9 () Int)
(declare-fun cell_7_9 () Int)
(declare-fun cell_8_9 () Int)
(declare-fun cell_9_9 () Int)
(assert
 (= cell_1_6 1))
(assert
 (= cell_1_7 2))
(assert
 (= cell_2_3 2))
(assert
 (= cell_2_7 1))
(assert
 (= cell_3_2 1))
(assert
 (= cell_3_6 2))
(assert
 (= cell_4_4 2))
(assert
 (= cell_4_9 1))
(assert
 (= cell_5_1 1))
(assert
 (= cell_6_4 1))
(assert
 (= cell_7_5 1))
(assert
 (= cell_8_8 1))
(assert
 (= cell_9_3 1))
(assert
 (let (($x7798 (= cell_1_1 9)))
 (let (($x3860 (= cell_1_1 8)))
 (let (($x3302 (= cell_1_1 7)))
 (let (($x6820 (= cell_1_1 6)))
 (let (($x1346 (= cell_1_1 5)))
 (let (($x2938 (= cell_1_1 4)))
 (let (($x7771 (= cell_1_1 3)))
 (let (($x439 (= cell_1_1 2)))
 (let (($x2343 (= cell_1_1 1)))
 (or $x2343 $x439 $x7771 $x2938 $x1346 $x6820 $x3302 $x3860 $x7798)))))))))))
(assert
 (let (($x3902 (= cell_2_1 9)))
 (let (($x3523 (= cell_2_1 8)))
 (let (($x129 (= cell_2_1 7)))
 (let (($x1757 (= cell_2_1 6)))
 (let (($x4184 (= cell_2_1 5)))
 (let (($x2337 (= cell_2_1 4)))
 (let (($x2615 (= cell_2_1 3)))
 (let (($x1762 (= cell_2_1 2)))
 (let (($x3530 (= cell_2_1 1)))
 (or $x3530 $x1762 $x2615 $x2337 $x4184 $x1757 $x129 $x3523 $x3902)))))))))))
(assert
 (let (($x7385 (= cell_3_1 9)))
 (let (($x3412 (= cell_3_1 8)))
 (let (($x3550 (= cell_3_1 7)))
 (let (($x1162 (= cell_3_1 6)))
 (let (($x795 (= cell_3_1 5)))
 (let (($x3646 (= cell_3_1 4)))
 (let (($x2677 (= cell_3_1 3)))
 (let (($x1895 (= cell_3_1 2)))
 (let (($x535 (= cell_3_1 1)))
 (or $x535 $x1895 $x2677 $x3646 $x795 $x1162 $x3550 $x3412 $x7385)))))))))))
(assert
 (let (($x3799 (= cell_4_1 9)))
 (let (($x3021 (= cell_4_1 8)))
 (let (($x4240 (= cell_4_1 7)))
 (let (($x2073 (= cell_4_1 6)))
 (let (($x1933 (= cell_4_1 5)))
 (let (($x3870 (= cell_4_1 4)))
 (let (($x7397 (= cell_4_1 3)))
 (let (($x2981 (= cell_4_1 2)))
 (let (($x2091 (= cell_4_1 1)))
 (or $x2091 $x2981 $x7397 $x3870 $x1933 $x2073 $x4240 $x3021 $x3799)))))))))))
(assert
 (let (($x7374 (= cell_5_1 1)))
 (or $x7374 (= cell_5_1 2) (= cell_5_1 3) (= cell_5_1 4) (= cell_5_1 5) (= cell_5_1 6) (= cell_5_1 7) (= cell_5_1 8) (= cell_5_1 9))))
(assert
 (let (($x1268 (= cell_6_1 9)))
 (let (($x2341 (= cell_6_1 8)))
 (let (($x230 (= cell_6_1 7)))
 (let (($x2346 (= cell_6_1 6)))
 (let (($x661 (= cell_6_1 5)))
 (let (($x1119 (= cell_6_1 4)))
 (let (($x2619 (= cell_6_1 3)))
 (let (($x452 (= cell_6_1 2)))
 (let (($x1308 (= cell_6_1 1)))
 (or $x1308 $x452 $x2619 $x1119 $x661 $x2346 $x230 $x2341 $x1268)))))))))))
(assert
 (let (($x673 (= cell_7_1 9)))
 (let (($x243 (= cell_7_1 8)))
 (let (($x2749 (= cell_7_1 7)))
 (let (($x1012 (= cell_7_1 6)))
 (let (($x1445 (= cell_7_1 5)))
 (let (($x3510 (= cell_7_1 4)))
 (let (($x1135 (= cell_7_1 3)))
 (let (($x206 (= cell_7_1 2)))
 (let (($x2056 (= cell_7_1 1)))
 (or $x2056 $x206 $x1135 $x3510 $x1445 $x1012 $x2749 $x243 $x673)))))))))))
(assert
 (let (($x1717 (= cell_8_1 9)))
 (let (($x2862 (= cell_8_1 8)))
 (let (($x226 (= cell_8_1 7)))
 (let (($x1108 (= cell_8_1 6)))
 (let (($x983 (= cell_8_1 5)))
 (let (($x313 (= cell_8_1 4)))
 (let (($x7873 (= cell_8_1 3)))
 (let (($x1205 (= cell_8_1 2)))
 (let (($x3626 (= cell_8_1 1)))
 (or $x3626 $x1205 $x7873 $x313 $x983 $x1108 $x226 $x2862 $x1717)))))))))))
(assert
 (let (($x1458 (= cell_9_1 9)))
 (let (($x2157 (= cell_9_1 8)))
 (let (($x42 (= cell_9_1 7)))
 (let (($x1907 (= cell_9_1 6)))
 (let (($x51 (= cell_9_1 5)))
 (let (($x171 (= cell_9_1 4)))
 (let (($x8006 (= cell_9_1 3)))
 (let (($x1232 (= cell_9_1 2)))
 (let (($x7963 (= cell_9_1 1)))
 (or $x7963 $x1232 $x8006 $x171 $x51 $x1907 $x42 $x2157 $x1458)))))))))))
(assert
 (let (($x1977 (= cell_1_2 9)))
 (let (($x1347 (= cell_1_2 8)))
 (let (($x151 (= cell_1_2 7)))
 (let (($x847 (= cell_1_2 6)))
 (let (($x3273 (= cell_1_2 5)))
 (let (($x775 (= cell_1_2 4)))
 (let (($x2059 (= cell_1_2 3)))
 (let (($x1092 (= cell_1_2 2)))
 (let (($x369 (= cell_1_2 1)))
 (or $x369 $x1092 $x2059 $x775 $x3273 $x847 $x151 $x1347 $x1977)))))))))))
(assert
 (let (($x2113 (= cell_2_2 9)))
 (let (($x590 (= cell_2_2 8)))
 (let (($x2850 (= cell_2_2 7)))
 (let (($x1698 (= cell_2_2 6)))
 (let (($x968 (= cell_2_2 5)))
 (let (($x1551 (= cell_2_2 4)))
 (let (($x348 (= cell_2_2 3)))
 (let (($x6693 (= cell_2_2 2)))
 (let (($x137 (= cell_2_2 1)))
 (or $x137 $x6693 $x348 $x1551 $x968 $x1698 $x2850 $x590 $x2113)))))))))))
(assert
 (let (($x749 (= cell_3_2 1)))
 (or $x749 (= cell_3_2 2) (= cell_3_2 3) (= cell_3_2 4) (= cell_3_2 5) (= cell_3_2 6) (= cell_3_2 7) (= cell_3_2 8) (= cell_3_2 9))))
(assert
 (let (($x3682 (= cell_4_2 9)))
 (let (($x3840 (= cell_4_2 8)))
 (let (($x455 (= cell_4_2 7)))
 (let (($x1903 (= cell_4_2 6)))
 (let (($x50 (= cell_4_2 5)))
 (let (($x647 (= cell_4_2 4)))
 (let (($x3236 (= cell_4_2 3)))
 (let (($x3343 (= cell_4_2 2)))
 (let (($x2715 (= cell_4_2 1)))
 (or $x2715 $x3343 $x3236 $x647 $x50 $x1903 $x455 $x3840 $x3682)))))))))))
(assert
 (let (($x3297 (= cell_5_2 1)))
 (or $x3297 (= cell_5_2 2) (= cell_5_2 3) (= cell_5_2 4) (= cell_5_2 5) (= cell_5_2 6) (= cell_5_2 7) (= cell_5_2 8) (= cell_5_2 9))))
(assert
 (let (($x2621 (= cell_6_2 9)))
 (let (($x2786 (= cell_6_2 8)))
 (let (($x1621 (= cell_6_2 7)))
 (let (($x6838 (= cell_6_2 6)))
 (let (($x2048 (= cell_6_2 5)))
 (let (($x2297 (= cell_6_2 4)))
 (let (($x241 (= cell_6_2 3)))
 (let (($x4111 (= cell_6_2 2)))
 (let (($x1419 (= cell_6_2 1)))
 (or $x1419 $x4111 $x241 $x2297 $x2048 $x6838 $x1621 $x2786 $x2621)))))))))))
(assert
 (let (($x2076 (= cell_7_2 9)))
 (let (($x1951 (= cell_7_2 8)))
 (let (($x2889 (= cell_7_2 7)))
 (let (($x2417 (= cell_7_2 6)))
 (let (($x1541 (= cell_7_2 5)))
 (let (($x1204 (= cell_7_2 4)))
 (let (($x2634 (= cell_7_2 3)))
 (let (($x3591 (= cell_7_2 2)))
 (let (($x1522 (= cell_7_2 1)))
 (or $x1522 $x3591 $x2634 $x1204 $x1541 $x2417 $x2889 $x1951 $x2076)))))))))))
(assert
 (let (($x4226 (= cell_8_2 9)))
 (let (($x411 (= cell_8_2 8)))
 (let (($x446 (= cell_8_2 7)))
 (let (($x7659 (= cell_8_2 6)))
 (let (($x776 (= cell_8_2 5)))
 (let (($x1461 (= cell_8_2 4)))
 (let (($x2440 (= cell_8_2 3)))
 (let (($x1565 (= cell_8_2 2)))
 (let (($x2058 (= cell_8_2 1)))
 (or $x2058 $x1565 $x2440 $x1461 $x776 $x7659 $x446 $x411 $x4226)))))))))))
(assert
 (let (($x1906 (= cell_9_2 9)))
 (let (($x2270 (= cell_9_2 8)))
 (let (($x2589 (= cell_9_2 7)))
 (let (($x70 (= cell_9_2 6)))
 (let (($x2821 (= cell_9_2 5)))
 (let (($x1333 (= cell_9_2 4)))
 (let (($x2941 (= cell_9_2 3)))
 (let (($x7488 (= cell_9_2 2)))
 (let (($x3129 (= cell_9_2 1)))
 (or $x3129 $x7488 $x2941 $x1333 $x2821 $x70 $x2589 $x2270 $x1906)))))))))))
(assert
 (let (($x380 (= cell_1_3 9)))
 (let (($x3449 (= cell_1_3 8)))
 (let (($x7236 (= cell_1_3 7)))
 (let (($x142 (= cell_1_3 6)))
 (let (($x2093 (= cell_1_3 5)))
 (let (($x2508 (= cell_1_3 4)))
 (let (($x2008 (= cell_1_3 3)))
 (let (($x7672 (= cell_1_3 2)))
 (let (($x2319 (= cell_1_3 1)))
 (or $x2319 $x7672 $x2008 $x2508 $x2093 $x142 $x7236 $x3449 $x380)))))))))))
(assert
 (let (($x2916 (= cell_2_3 2)))
 (or (= cell_2_3 1) $x2916 (= cell_2_3 3) (= cell_2_3 4) (= cell_2_3 5) (= cell_2_3 6) (= cell_2_3 7) (= cell_2_3 8) (= cell_2_3 9))))
(assert
 (let (($x701 (= cell_3_3 9)))
 (let (($x4198 (= cell_3_3 8)))
 (let (($x270 (= cell_3_3 7)))
 (let (($x3440 (= cell_3_3 6)))
 (let (($x2445 (= cell_3_3 5)))
 (let (($x1319 (= cell_3_3 4)))
 (let (($x7495 (= cell_3_3 3)))
 (let (($x863 (= cell_3_3 2)))
 (let (($x2044 (= cell_3_3 1)))
 (or $x2044 $x863 $x7495 $x1319 $x2445 $x3440 $x270 $x4198 $x701)))))))))))
(assert
 (let (($x1803 (= cell_4_3 9)))
 (let (($x8013 (= cell_4_3 8)))
 (let (($x3684 (= cell_4_3 7)))
 (let (($x3937 (= cell_4_3 6)))
 (let (($x2876 (= cell_4_3 5)))
 (let (($x3375 (= cell_4_3 4)))
 (let (($x1953 (= cell_4_3 3)))
 (let (($x802 (= cell_4_3 2)))
 (let (($x4042 (= cell_4_3 1)))
 (or $x4042 $x802 $x1953 $x3375 $x2876 $x3937 $x3684 $x8013 $x1803)))))))))))
(assert
 (let (($x8020 (= cell_5_3 9)))
 (let (($x1107 (= cell_5_3 8)))
 (let (($x3254 (= cell_5_3 7)))
 (let (($x4020 (= cell_5_3 6)))
 (let (($x1554 (= cell_5_3 5)))
 (let (($x429 (= cell_5_3 4)))
 (let (($x3070 (= cell_5_3 3)))
 (let (($x747 (= cell_5_3 2)))
 (let (($x7607 (= cell_5_3 1)))
 (or $x7607 $x747 $x3070 $x429 $x1554 $x4020 $x3254 $x1107 $x8020)))))))))))
(assert
 (let (($x6759 (= cell_6_3 9)))
 (let (($x4229 (= cell_6_3 8)))
 (let (($x3514 (= cell_6_3 7)))
 (let (($x1417 (= cell_6_3 6)))
 (let (($x4022 (= cell_6_3 5)))
 (let (($x1321 (= cell_6_3 4)))
 (let (($x7973 (= cell_6_3 3)))
 (let (($x2653 (= cell_6_3 2)))
 (let (($x4082 (= cell_6_3 1)))
 (or $x4082 $x2653 $x7973 $x1321 $x4022 $x1417 $x3514 $x4229 $x6759)))))))))))
(assert
 (let (($x1020 (= cell_7_3 9)))
 (let (($x2399 (= cell_7_3 8)))
 (let (($x3667 (= cell_7_3 7)))
 (let (($x3615 (= cell_7_3 6)))
 (let (($x2511 (= cell_7_3 5)))
 (let (($x3384 (= cell_7_3 4)))
 (let (($x2095 (= cell_7_3 3)))
 (let (($x1894 (= cell_7_3 2)))
 (let (($x948 (= cell_7_3 1)))
 (or $x948 $x1894 $x2095 $x3384 $x2511 $x3615 $x3667 $x2399 $x1020)))))))))))
(assert
 (let (($x1240 (= cell_8_3 9)))
 (let (($x1935 (= cell_8_3 8)))
 (let (($x2068 (= cell_8_3 7)))
 (let (($x7414 (= cell_8_3 6)))
 (let (($x7757 (= cell_8_3 5)))
 (let (($x3461 (= cell_8_3 4)))
 (let (($x1704 (= cell_8_3 3)))
 (let (($x187 (= cell_8_3 2)))
 (let (($x3157 (= cell_8_3 1)))
 (or $x3157 $x187 $x1704 $x3461 $x7757 $x7414 $x2068 $x1935 $x1240)))))))))))
(assert
 (let (($x4076 (= cell_9_3 1)))
 (or $x4076 (= cell_9_3 2) (= cell_9_3 3) (= cell_9_3 4) (= cell_9_3 5) (= cell_9_3 6) (= cell_9_3 7) (= cell_9_3 8) (= cell_9_3 9))))
(assert
 (let (($x2823 (= cell_1_4 9)))
 (let (($x570 (= cell_1_4 8)))
 (let (($x4072 (= cell_1_4 7)))
 (let (($x3362 (= cell_1_4 6)))
 (let (($x8011 (= cell_1_4 5)))
 (let (($x1045 (= cell_1_4 4)))
 (let (($x2010 (= cell_1_4 3)))
 (let (($x7531 (= cell_1_4 2)))
 (let (($x7786 (= cell_1_4 1)))
 (or $x7786 $x7531 $x2010 $x1045 $x8011 $x3362 $x4072 $x570 $x2823)))))))))))
(assert
 (let (($x800 (= cell_2_4 9)))
 (let (($x2712 (= cell_2_4 8)))
 (let (($x1422 (= cell_2_4 7)))
 (let (($x7803 (= cell_2_4 6)))
 (let (($x2069 (= cell_2_4 5)))
 (let (($x2070 (= cell_2_4 4)))
 (let (($x6810 (= cell_2_4 3)))
 (let (($x1578 (= cell_2_4 2)))
 (let (($x3309 (= cell_2_4 1)))
 (or $x3309 $x1578 $x6810 $x2070 $x2069 $x7803 $x1422 $x2712 $x800)))))))))))
(assert
 (let (($x859 (= cell_3_4 9)))
 (let (($x687 (= cell_3_4 8)))
 (let (($x1791 (= cell_3_4 7)))
 (let (($x67 (= cell_3_4 6)))
 (let (($x7063 (= cell_3_4 5)))
 (let (($x2214 (= cell_3_4 4)))
 (let (($x3024 (= cell_3_4 3)))
 (let (($x1500 (= cell_3_4 2)))
 (let (($x3690 (= cell_3_4 1)))
 (or $x3690 $x1500 $x3024 $x2214 $x7063 $x67 $x1791 $x687 $x859)))))))))))
(assert
 (let (($x616 (= cell_4_4 2)))
 (or (= cell_4_4 1) $x616 (= cell_4_4 3) (= cell_4_4 4) (= cell_4_4 5) (= cell_4_4 6) (= cell_4_4 7) (= cell_4_4 8) (= cell_4_4 9))))
(assert
 (let (($x1369 (= cell_5_4 9)))
 (let (($x792 (= cell_5_4 8)))
 (let (($x4243 (= cell_5_4 7)))
 (let (($x1285 (= cell_5_4 6)))
 (let (($x1273 (= cell_5_4 5)))
 (let (($x4151 (= cell_5_4 4)))
 (let (($x1136 (= cell_5_4 3)))
 (let (($x524 (= cell_5_4 2)))
 (let (($x344 (= cell_5_4 1)))
 (or $x344 $x524 $x1136 $x4151 $x1273 $x1285 $x4243 $x792 $x1369)))))))))))
(assert
 (let (($x2753 (= cell_6_4 1)))
 (or $x2753 (= cell_6_4 2) (= cell_6_4 3) (= cell_6_4 4) (= cell_6_4 5) (= cell_6_4 6) (= cell_6_4 7) (= cell_6_4 8) (= cell_6_4 9))))
(assert
 (let (($x395 (= cell_7_4 9)))
 (let (($x2375 (= cell_7_4 8)))
 (let (($x1771 (= cell_7_4 7)))
 (let (($x2479 (= cell_7_4 6)))
 (let (($x2112 (= cell_7_4 5)))
 (let (($x3576 (= cell_7_4 4)))
 (let (($x7788 (= cell_7_4 3)))
 (let (($x2357 (= cell_7_4 2)))
 (let (($x2545 (= cell_7_4 1)))
 (or $x2545 $x2357 $x7788 $x3576 $x2112 $x2479 $x1771 $x2375 $x395)))))))))))
(assert
 (let (($x3804 (= cell_8_4 9)))
 (let (($x721 (= cell_8_4 8)))
 (let (($x3255 (= cell_8_4 7)))
 (let (($x3059 (= cell_8_4 6)))
 (let (($x104 (= cell_8_4 5)))
 (let (($x1270 (= cell_8_4 4)))
 (let (($x897 (= cell_8_4 3)))
 (let (($x3818 (= cell_8_4 2)))
 (let (($x3279 (= cell_8_4 1)))
 (or $x3279 $x3818 $x897 $x1270 $x104 $x3059 $x3255 $x721 $x3804)))))))))))
(assert
 (let (($x6815 (= cell_9_4 2)))
 (let (($x613 (= cell_9_4 1)))
 (or $x613 $x6815 (= cell_9_4 3) (= cell_9_4 4) (= cell_9_4 5) (= cell_9_4 6) (= cell_9_4 7) (= cell_9_4 8) (= cell_9_4 9)))))
(assert
 (let (($x1219 (= cell_1_5 9)))
 (let (($x3798 (= cell_1_5 8)))
 (let (($x3921 (= cell_1_5 7)))
 (let (($x3382 (= cell_1_5 6)))
 (let (($x849 (= cell_1_5 5)))
 (let (($x3622 (= cell_1_5 4)))
 (let (($x1386 (= cell_1_5 3)))
 (let (($x783 (= cell_1_5 2)))
 (let (($x585 (= cell_1_5 1)))
 (or $x585 $x783 $x1386 $x3622 $x849 $x3382 $x3921 $x3798 $x1219)))))))))))
(assert
 (let (($x1115 (= cell_2_5 9)))
 (let (($x1105 (= cell_2_5 8)))
 (let (($x738 (= cell_2_5 7)))
 (let (($x7884 (= cell_2_5 6)))
 (let (($x1587 (= cell_2_5 5)))
 (let (($x3716 (= cell_2_5 4)))
 (let (($x3705 (= cell_2_5 3)))
 (let (($x1645 (= cell_2_5 2)))
 (let (($x2235 (= cell_2_5 1)))
 (or $x2235 $x1645 $x3705 $x3716 $x1587 $x7884 $x738 $x1105 $x1115)))))))))))
(assert
 (let (($x2599 (= cell_3_5 9)))
 (let (($x2853 (= cell_3_5 8)))
 (let (($x2197 (= cell_3_5 7)))
 (let (($x2888 (= cell_3_5 6)))
 (let (($x870 (= cell_3_5 5)))
 (let (($x1656 (= cell_3_5 4)))
 (let (($x502 (= cell_3_5 3)))
 (let (($x1759 (= cell_3_5 2)))
 (let (($x2649 (= cell_3_5 1)))
 (or $x2649 $x1759 $x502 $x1656 $x870 $x2888 $x2197 $x2853 $x2599)))))))))))
(assert
 (let (($x133 (= cell_4_5 9)))
 (let (($x4061 (= cell_4_5 8)))
 (let (($x3580 (= cell_4_5 7)))
 (let (($x1810 (= cell_4_5 6)))
 (let (($x617 (= cell_4_5 5)))
 (let (($x3932 (= cell_4_5 4)))
 (let (($x2148 (= cell_4_5 3)))
 (let (($x1203 (= cell_4_5 2)))
 (let (($x497 (= cell_4_5 1)))
 (or $x497 $x1203 $x2148 $x3932 $x617 $x1810 $x3580 $x4061 $x133)))))))))))
(assert
 (let (($x1340 (= cell_5_5 9)))
 (let (($x1839 (= cell_5_5 8)))
 (let (($x2507 (= cell_5_5 7)))
 (let (($x4057 (= cell_5_5 6)))
 (let (($x1831 (= cell_5_5 5)))
 (let (($x7767 (= cell_5_5 4)))
 (let (($x2243 (= cell_5_5 3)))
 (let (($x3484 (= cell_5_5 2)))
 (let (($x580 (= cell_5_5 1)))
 (or $x580 $x3484 $x2243 $x7767 $x1831 $x4057 $x2507 $x1839 $x1340)))))))))))
(assert
 (let (($x1772 (= cell_6_5 9)))
 (let (($x2304 (= cell_6_5 8)))
 (let (($x1884 (= cell_6_5 7)))
 (let (($x1700 (= cell_6_5 6)))
 (let (($x3521 (= cell_6_5 5)))
 (let (($x2428 (= cell_6_5 4)))
 (let (($x7496 (= cell_6_5 3)))
 (let (($x1475 (= cell_6_5 2)))
 (let (($x448 (= cell_6_5 1)))
 (or $x448 $x1475 $x7496 $x2428 $x3521 $x1700 $x1884 $x2304 $x1772)))))))))))
(assert
 (let (($x3614 (= cell_7_5 1)))
 (or $x3614 (= cell_7_5 2) (= cell_7_5 3) (= cell_7_5 4) (= cell_7_5 5) (= cell_7_5 6) (= cell_7_5 7) (= cell_7_5 8) (= cell_7_5 9))))
(assert
 (let (($x2212 (= cell_8_5 9)))
 (let (($x2433 (= cell_8_5 8)))
 (let (($x1310 (= cell_8_5 7)))
 (let (($x2703 (= cell_8_5 6)))
 (let (($x3427 (= cell_8_5 5)))
 (let (($x2444 (= cell_8_5 4)))
 (let (($x1377 (= cell_8_5 3)))
 (let (($x194 (= cell_8_5 2)))
 (let (($x2088 (= cell_8_5 1)))
 (or $x2088 $x194 $x1377 $x2444 $x3427 $x2703 $x1310 $x2433 $x2212)))))))))))
(assert
 (let (($x837 (= cell_9_5 1)))
 (or $x837 (= cell_9_5 2) (= cell_9_5 3) (= cell_9_5 4) (= cell_9_5 5) (= cell_9_5 6) (= cell_9_5 7) (= cell_9_5 8) (= cell_9_5 9))))
(assert
 (let (($x1217 (= cell_1_6 1)))
 (or $x1217 (= cell_1_6 2) (= cell_1_6 3) (= cell_1_6 4) (= cell_1_6 5) (= cell_1_6 6) (= cell_1_6 7) (= cell_1_6 8) (= cell_1_6 9))))
(assert
 (let (($x1966 (= cell_2_6 9)))
 (let (($x1756 (= cell_2_6 8)))
 (let (($x2737 (= cell_2_6 7)))
 (let (($x2641 (= cell_2_6 6)))
 (let (($x2890 (= cell_2_6 5)))
 (let (($x2283 (= cell_2_6 4)))
 (let (($x2296 (= cell_2_6 3)))
 (let (($x267 (= cell_2_6 2)))
 (let (($x1067 (= cell_2_6 1)))
 (or $x1067 $x267 $x2296 $x2283 $x2890 $x2641 $x2737 $x1756 $x1966)))))))))))
(assert
 (let (($x3603 (= cell_3_6 2)))
 (or (= cell_3_6 1) $x3603 (= cell_3_6 3) (= cell_3_6 4) (= cell_3_6 5) (= cell_3_6 6) (= cell_3_6 7) (= cell_3_6 8) (= cell_3_6 9))))
(assert
 (let (($x229 (= cell_4_6 9)))
 (let (($x3242 (= cell_4_6 8)))
 (let (($x1406 (= cell_4_6 7)))
 (let (($x527 (= cell_4_6 6)))
 (let (($x249 (= cell_4_6 5)))
 (let (($x2765 (= cell_4_6 4)))
 (let (($x602 (= cell_4_6 3)))
 (let (($x3723 (= cell_4_6 2)))
 (let (($x1431 (= cell_4_6 1)))
 (or $x1431 $x3723 $x602 $x2765 $x249 $x527 $x1406 $x3242 $x229)))))))))))
(assert
 (let (($x4121 (= cell_5_6 9)))
 (let (($x7345 (= cell_5_6 8)))
 (let (($x146 (= cell_5_6 7)))
 (let (($x2183 (= cell_5_6 6)))
 (let (($x3574 (= cell_5_6 5)))
 (let (($x2842 (= cell_5_6 4)))
 (let (($x18 (= cell_5_6 3)))
 (let (($x1134 (= cell_5_6 2)))
 (let (($x2362 (= cell_5_6 1)))
 (or $x2362 $x1134 $x18 $x2842 $x3574 $x2183 $x146 $x7345 $x4121)))))))))))
(assert
 (let (($x7683 (= cell_6_6 2)))
 (let (($x2768 (= cell_6_6 1)))
 (or $x2768 $x7683 (= cell_6_6 3) (= cell_6_6 4) (= cell_6_6 5) (= cell_6_6 6) (= cell_6_6 7) (= cell_6_6 8) (= cell_6_6 9)))))
(assert
 (let (($x2626 (= cell_7_6 2)))
 (let (($x1399 (= cell_7_6 1)))
 (or $x1399 $x2626 (= cell_7_6 3) (= cell_7_6 4) (= cell_7_6 5) (= cell_7_6 6) (= cell_7_6 7) (= cell_7_6 8) (= cell_7_6 9)))))
(assert
 (let (($x1703 (= cell_8_6 9)))
 (let (($x2232 (= cell_8_6 8)))
 (let (($x2867 (= cell_8_6 7)))
 (let (($x2841 (= cell_8_6 6)))
 (let (($x307 (= cell_8_6 5)))
 (let (($x2156 (= cell_8_6 4)))
 (let (($x1594 (= cell_8_6 3)))
 (let (($x6700 (= cell_8_6 2)))
 (let (($x2326 (= cell_8_6 1)))
 (or $x2326 $x6700 $x1594 $x2156 $x307 $x2841 $x2867 $x2232 $x1703)))))))))))
(assert
 (let (($x512 (= cell_9_6 2)))
 (let (($x3793 (= cell_9_6 1)))
 (or $x3793 $x512 (= cell_9_6 3) (= cell_9_6 4) (= cell_9_6 5) (= cell_9_6 6) (= cell_9_6 7) (= cell_9_6 8) (= cell_9_6 9)))))
(assert
 (let (($x1039 (= cell_1_7 2)))
 (or (= cell_1_7 1) $x1039 (= cell_1_7 3) (= cell_1_7 4) (= cell_1_7 5) (= cell_1_7 6) (= cell_1_7 7) (= cell_1_7 8) (= cell_1_7 9))))
(assert
 (let (($x1192 (= cell_2_7 1)))
 (or $x1192 (= cell_2_7 2) (= cell_2_7 3) (= cell_2_7 4) (= cell_2_7 5) (= cell_2_7 6) (= cell_2_7 7) (= cell_2_7 8) (= cell_2_7 9))))
(assert
 (let (($x74 (= cell_3_7 2)))
 (let (($x2656 (= cell_3_7 1)))
 (or $x2656 $x74 (= cell_3_7 3) (= cell_3_7 4) (= cell_3_7 5) (= cell_3_7 6) (= cell_3_7 7) (= cell_3_7 8) (= cell_3_7 9)))))
(assert
 (let (($x3538 (= cell_4_7 9)))
 (let (($x6996 (= cell_4_7 8)))
 (let (($x3943 (= cell_4_7 7)))
 (let (($x4210 (= cell_4_7 6)))
 (let (($x942 (= cell_4_7 5)))
 (let (($x1821 (= cell_4_7 4)))
 (let (($x329 (= cell_4_7 3)))
 (let (($x2050 (= cell_4_7 2)))
 (let (($x4124 (= cell_4_7 1)))
 (or $x4124 $x2050 $x329 $x1821 $x942 $x4210 $x3943 $x6996 $x3538)))))))))))
(assert
 (let (($x4155 (= cell_5_7 2)))
 (let (($x3583 (= cell_5_7 1)))
 (or $x3583 $x4155 (= cell_5_7 3) (= cell_5_7 4) (= cell_5_7 5) (= cell_5_7 6) (= cell_5_7 7) (= cell_5_7 8) (= cell_5_7 9)))))
(assert
 (let (($x2421 (= cell_6_7 2)))
 (let (($x2835 (= cell_6_7 1)))
 (or $x2835 $x2421 (= cell_6_7 3) (= cell_6_7 4) (= cell_6_7 5) (= cell_6_7 6) (= cell_6_7 7) (= cell_6_7 8) (= cell_6_7 9)))))
(assert
 (let (($x78 (= cell_7_7 9)))
 (let (($x7092 (= cell_7_7 8)))
 (let (($x1769 (= cell_7_7 7)))
 (let (($x579 (= cell_7_7 6)))
 (let (($x3967 (= cell_7_7 5)))
 (let (($x8016 (= cell_7_7 4)))
 (let (($x1490 (= cell_7_7 3)))
 (let (($x2318 (= cell_7_7 2)))
 (let (($x511 (= cell_7_7 1)))
 (or $x511 $x2318 $x1490 $x8016 $x3967 $x579 $x1769 $x7092 $x78)))))))))))
(assert
 (let (($x573 (= cell_8_7 9)))
 (let (($x1826 (= cell_8_7 8)))
 (let (($x3434 (= cell_8_7 7)))
 (let (($x554 (= cell_8_7 6)))
 (let (($x3947 (= cell_8_7 5)))
 (let (($x3114 (= cell_8_7 4)))
 (let (($x101 (= cell_8_7 3)))
 (let (($x761 (= cell_8_7 2)))
 (let (($x385 (= cell_8_7 1)))
 (or $x385 $x761 $x101 $x3114 $x3947 $x554 $x3434 $x1826 $x573)))))))))))
(assert
 (let (($x3181 (= cell_9_7 2)))
 (let (($x3007 (= cell_9_7 1)))
 (or $x3007 $x3181 (= cell_9_7 3) (= cell_9_7 4) (= cell_9_7 5) (= cell_9_7 6) (= cell_9_7 7) (= cell_9_7 8) (= cell_9_7 9)))))
(assert
 (let (($x6699 (= cell_1_8 9)))
 (let (($x4183 (= cell_1_8 8)))
 (let (($x862 (= cell_1_8 7)))
 (let (($x1053 (= cell_1_8 6)))
 (let (($x1243 (= cell_1_8 5)))
 (let (($x759 (= cell_1_8 4)))
 (let (($x2383 (= cell_1_8 3)))
 (let (($x4097 (= cell_1_8 2)))
 (let (($x1550 (= cell_1_8 1)))
 (or $x1550 $x4097 $x2383 $x759 $x1243 $x1053 $x862 $x4183 $x6699)))))))))))
(assert
 (let (($x799 (= cell_2_8 9)))
 (let (($x4056 (= cell_2_8 8)))
 (let (($x3139 (= cell_2_8 7)))
 (let (($x30 (= cell_2_8 6)))
 (let (($x7229 (= cell_2_8 5)))
 (let (($x2365 (= cell_2_8 4)))
 (let (($x4074 (= cell_2_8 3)))
 (let (($x2023 (= cell_2_8 2)))
 (let (($x1250 (= cell_2_8 1)))
 (or $x1250 $x2023 $x4074 $x2365 $x7229 $x30 $x3139 $x4056 $x799)))))))))))
(assert
 (let (($x3378 (= cell_3_8 9)))
 (let (($x583 (= cell_3_8 8)))
 (let (($x2439 (= cell_3_8 7)))
 (let (($x1245 (= cell_3_8 6)))
 (let (($x2186 (= cell_3_8 5)))
 (let (($x7344 (= cell_3_8 4)))
 (let (($x2465 (= cell_3_8 3)))
 (let (($x2386 (= cell_3_8 2)))
 (let (($x868 (= cell_3_8 1)))
 (or $x868 $x2386 $x2465 $x7344 $x2186 $x1245 $x2439 $x583 $x3378)))))))))))
(assert
 (let (($x96 (= cell_4_8 9)))
 (let (($x2624 (= cell_4_8 8)))
 (let (($x2029 (= cell_4_8 7)))
 (let (($x7442 (= cell_4_8 6)))
 (let (($x3698 (= cell_4_8 5)))
 (let (($x4163 (= cell_4_8 4)))
 (let (($x3177 (= cell_4_8 3)))
 (let (($x3670 (= cell_4_8 2)))
 (let (($x2329 (= cell_4_8 1)))
 (or $x2329 $x3670 $x3177 $x4163 $x3698 $x7442 $x2029 $x2624 $x96)))))))))))
(assert
 (let (($x1939 (= cell_5_8 9)))
 (let (($x457 (= cell_5_8 8)))
 (let (($x542 (= cell_5_8 7)))
 (let (($x2640 (= cell_5_8 6)))
 (let (($x3560 (= cell_5_8 5)))
 (let (($x7977 (= cell_5_8 4)))
 (let (($x1902 (= cell_5_8 3)))
 (let (($x3115 (= cell_5_8 2)))
 (let (($x7053 (= cell_5_8 1)))
 (or $x7053 $x3115 $x1902 $x7977 $x3560 $x2640 $x542 $x457 $x1939)))))))))))
(assert
 (let (($x667 (= cell_6_8 9)))
 (let (($x820 (= cell_6_8 8)))
 (let (($x1786 (= cell_6_8 7)))
 (let (($x1879 (= cell_6_8 6)))
 (let (($x2593 (= cell_6_8 5)))
 (let (($x1332 (= cell_6_8 4)))
 (let (($x615 (= cell_6_8 3)))
 (let (($x3284 (= cell_6_8 2)))
 (let (($x177 (= cell_6_8 1)))
 (or $x177 $x3284 $x615 $x1332 $x2593 $x1879 $x1786 $x820 $x667)))))))))))
(assert
 (let (($x3608 (= cell_7_8 9)))
 (let (($x1726 (= cell_7_8 8)))
 (let (($x297 (= cell_7_8 7)))
 (let (($x1619 (= cell_7_8 6)))
 (let (($x843 (= cell_7_8 5)))
 (let (($x2996 (= cell_7_8 4)))
 (let (($x434 (= cell_7_8 3)))
 (let (($x2261 (= cell_7_8 2)))
 (let (($x1298 (= cell_7_8 1)))
 (or $x1298 $x2261 $x434 $x2996 $x843 $x1619 $x297 $x1726 $x3608)))))))))))
(assert
 (let (($x3876 (= cell_8_8 1)))
 (or $x3876 (= cell_8_8 2) (= cell_8_8 3) (= cell_8_8 4) (= cell_8_8 5) (= cell_8_8 6) (= cell_8_8 7) (= cell_8_8 8) (= cell_8_8 9))))
(assert
 (let (($x1931 (= cell_9_8 1)))
 (or $x1931 (= cell_9_8 2) (= cell_9_8 3) (= cell_9_8 4) (= cell_9_8 5) (= cell_9_8 6) (= cell_9_8 7) (= cell_9_8 8) (= cell_9_8 9))))
(assert
 (let (($x21 (= cell_1_9 9)))
 (let (($x2266 (= cell_1_9 8)))
 (let (($x46 (= cell_1_9 7)))
 (let (($x3299 (= cell_1_9 6)))
 (let (($x6816 (= cell_1_9 5)))
 (let (($x3773 (= cell_1_9 4)))
 (let (($x763 (= cell_1_9 3)))
 (let (($x3702 (= cell_1_9 2)))
 (let (($x1570 (= cell_1_9 1)))
 (or $x1570 $x3702 $x763 $x3773 $x6816 $x3299 $x46 $x2266 $x21)))))))))))
(assert
 (let (($x231 (= cell_2_9 9)))
 (let (($x3821 (= cell_2_9 8)))
 (let (($x3170 (= cell_2_9 7)))
 (let (($x851 (= cell_2_9 6)))
 (let (($x22 (= cell_2_9 5)))
 (let (($x1184 (= cell_2_9 4)))
 (let (($x2695 (= cell_2_9 3)))
 (let (($x1044 (= cell_2_9 2)))
 (let (($x1210 (= cell_2_9 1)))
 (or $x1210 $x1044 $x2695 $x1184 $x22 $x851 $x3170 $x3821 $x231)))))))))))
(assert
 (let (($x2493 (= cell_3_9 9)))
 (let (($x2125 (= cell_3_9 8)))
 (let (($x2149 (= cell_3_9 7)))
 (let (($x1806 (= cell_3_9 6)))
 (let (($x1006 (= cell_3_9 5)))
 (let (($x836 (= cell_3_9 4)))
 (let (($x3099 (= cell_3_9 3)))
 (let (($x7663 (= cell_3_9 2)))
 (let (($x6828 (= cell_3_9 1)))
 (or $x6828 $x7663 $x3099 $x836 $x1006 $x1806 $x2149 $x2125 $x2493)))))))))))
(assert
 (let (($x2092 (= cell_4_9 1)))
 (or $x2092 (= cell_4_9 2) (= cell_4_9 3) (= cell_4_9 4) (= cell_4_9 5) (= cell_4_9 6) (= cell_4_9 7) (= cell_4_9 8) (= cell_4_9 9))))
(assert
 (let (($x3643 (= cell_5_9 1)))
 (or $x3643 (= cell_5_9 2) (= cell_5_9 3) (= cell_5_9 4) (= cell_5_9 5) (= cell_5_9 6) (= cell_5_9 7) (= cell_5_9 8) (= cell_5_9 9))))
(assert
 (let (($x2142 (= cell_6_9 1)))
 (or $x2142 (= cell_6_9 2) (= cell_6_9 3) (= cell_6_9 4) (= cell_6_9 5) (= cell_6_9 6) (= cell_6_9 7) (= cell_6_9 8) (= cell_6_9 9))))
(assert
 (let (($x1763 (= cell_7_9 9)))
 (let (($x211 (= cell_7_9 8)))
 (let (($x158 (= cell_7_9 7)))
 (let (($x3230 (= cell_7_9 6)))
 (let (($x705 (= cell_7_9 5)))
 (let (($x3588 (= cell_7_9 4)))
 (let (($x2144 (= cell_7_9 3)))
 (let (($x3872 (= cell_7_9 2)))
 (let (($x3811 (= cell_7_9 1)))
 (or $x3811 $x3872 $x2144 $x3588 $x705 $x3230 $x158 $x211 $x1763)))))))))))
(assert
 (let (($x1976 (= cell_8_9 2)))
 (let (($x421 (= cell_8_9 1)))
 (or $x421 $x1976 (= cell_8_9 3) (= cell_8_9 4) (= cell_8_9 5) (= cell_8_9 6) (= cell_8_9 7) (= cell_8_9 8) (= cell_8_9 9)))))
(assert
 (let (($x3075 (= cell_9_9 1)))
 (or $x3075 (= cell_9_9 2) (= cell_9_9 3) (= cell_9_9 4) (= cell_9_9 5) (= cell_9_9 6) (= cell_9_9 7) (= cell_9_9 8) (= cell_9_9 9))))
(assert
 (and (distinct cell_1_1 cell_1_2 cell_1_3 cell_1_4 cell_1_5 cell_1_6 cell_1_7 cell_1_8 cell_1_9) true))
(assert
 (and (distinct cell_2_1 cell_2_2 cell_2_3 cell_2_4 cell_2_5 cell_2_6 cell_2_7 cell_2_8 cell_2_9) true))
(assert
 (and (distinct cell_3_1 cell_3_2 cell_3_3 cell_3_4 cell_3_5 cell_3_6 cell_3_7 cell_3_8 cell_3_9) true))
(assert
 (and (distinct cell_4_1 cell_4_2 cell_4_3 cell_4_4 cell_4_5 cell_4_6 cell_4_7 cell_4_8 cell_4_9) true))
(assert
 (and (distinct cell_5_1 cell_5_2 cell_5_3 cell_5_4 cell_5_5 cell_5_6 cell_5_7 cell_5_8 cell_5_9) true))
(assert
 (and (distinct cell_6_1 cell_6_2 cell_6_3 cell_6_4 cell_6_5 cell_6_6 cell_6_7 cell_6_8 cell_6_9) true))
(assert
 (and (distinct cell_7_1 cell_7_2 cell_7_3 cell_7_4 cell_7_5 cell_7_6 cell_7_7 cell_7_8 cell_7_9) true))
(assert
 (and (distinct cell_8_1 cell_8_2 cell_8_3 cell_8_4 cell_8_5 cell_8_6 cell_8_7 cell_8_8 cell_8_9) true))
(assert
 (and (distinct cell_9_1 cell_9_2 cell_9_3 cell_9_4 cell_9_5 cell_9_6 cell_9_7 cell_9_8 cell_9_9) true))
(assert
 (and (distinct cell_1_1 cell_2_1 cell_3_1 cell_4_1 cell_5_1 cell_6_1 cell_7_1 cell_8_1 cell_9_1) true))
(assert
 (and (distinct cell_1_2 cell_2_2 cell_3_2 cell_4_2 cell_5_2 cell_6_2 cell_7_2 cell_8_2 cell_9_2) true))
(assert
 (and (distinct cell_1_3 cell_2_3 cell_3_3 cell_4_3 cell_5_3 cell_6_3 cell_7_3 cell_8_3 cell_9_3) true))
(assert
 (and (distinct cell_1_4 cell_2_4 cell_3_4 cell_4_4 cell_5_4 cell_6_4 cell_7_4 cell_8_4 cell_9_4) true))
(assert
 (and (distinct cell_1_5 cell_2_5 cell_3_5 cell_4_5 cell_5_5 cell_6_5 cell_7_5 cell_8_5 cell_9_5) true))
(assert
 (and (distinct cell_1_6 cell_2_6 cell_3_6 cell_4_6 cell_5_6 cell_6_6 cell_7_6 cell_8_6 cell_9_6) true))
(assert
 (and (distinct cell_1_7 cell_2_7 cell_3_7 cell_4_7 cell_5_7 cell_6_7 cell_7_7 cell_8_7 cell_9_7) true))
(assert
 (and (distinct cell_1_8 cell_2_8 cell_3_8 cell_4_8 cell_5_8 cell_6_8 cell_7_8 cell_8_8 cell_9_8) true))
(assert
 (and (distinct cell_1_9 cell_2_9 cell_3_9 cell_4_9 cell_5_9 cell_6_9 cell_7_9 cell_8_9 cell_9_9) true))
(assert
 (and (distinct cell_1_1 cell_1_2 cell_1_3 cell_2_1 cell_2_2 cell_2_3 cell_3_1 cell_3_2 cell_3_3) true))
(assert
 (and (distinct cell_1_4 cell_1_5 cell_1_6 cell_2_4 cell_2_5 cell_2_6 cell_3_4 cell_3_5 cell_3_6) true))
(assert
 (and (distinct cell_1_7 cell_1_8 cell_1_9 cell_2_7 cell_2_8 cell_2_9 cell_3_7 cell_3_8 cell_3_9) true))
(assert
 (and (distinct cell_4_1 cell_4_2 cell_4_3 cell_5_1 cell_5_2 cell_5_3 cell_6_1 cell_6_2 cell_6_3) true))
(assert
 (and (distinct cell_4_4 cell_4_5 cell_4_6 cell_5_4 cell_5_5 cell_5_6 cell_6_4 cell_6_5 cell_6_6) true))
(assert
 (and (distinct cell_4_7 cell_4_8 cell_4_9 cell_5_7 cell_5_8 cell_5_9 cell_6_7 cell_6_8 cell_6_9) true))
(assert
 (and (distinct cell_7_1 cell_7_2 cell_7_3 cell_8_1 cell_8_2 cell_8_3 cell_9_1 cell_9_2 cell_9_3) true))
(assert
 (and (distinct cell_7_4 cell_7_5 cell_7_6 cell_8_4 cell_8_5 cell_8_6 cell_9_4 cell_9_5 cell_9_6) true))
(assert
 (and (distinct cell_7_7 cell_7_8 cell_7_9 cell_8_7 cell_8_8 cell_8_9 cell_9_7 cell_9_8 cell_9_9) true))
(assert
 (let (($x3215 (and (distinct cell_5_9 cell_6_8 cell_7_7 cell_8_6) true)))
 (let (($x3109 (and (distinct cell_2_9 cell_3_8 cell_4_7 cell_5_6 cell_6_5 cell_7_4 cell_8_3 cell_9_2) true)))
 (let (($x300 (and (distinct cell_1_8 cell_2_7 cell_3_6 cell_4_5 cell_5_4 cell_6_3 cell_7_2 cell_8_1) true)))
 (let (($x1019 (and (distinct cell_1_5 cell_2_4 cell_3_3 cell_4_2) true)))
 (let (($x784 (and (distinct cell_5_1 cell_6_2 cell_7_3 cell_8_4) true)))
 (let (($x2231 (and (distinct cell_2_1 cell_3_2 cell_4_3 cell_5_4 cell_6_5 cell_7_6 cell_8_7 cell_9_8) true)))
 (let (($x1071 (and (distinct cell_1_2 cell_2_3 cell_3_4 cell_4_5 cell_5_6 cell_6_7 cell_7_8 cell_8_9) true)))
 (let (($x1882 (and (distinct cell_1_5 cell_2_6 cell_3_7 cell_4_8) true)))
 (and $x1882 $x1071 $x2231 $x784 $x1019 $x300 $x3109 $x3215))))))))))
(assert
 (= cell_5_8 2))
(check-sat)
